770
770
671
693
664
704
702
637
639
781
645
678
609
834
770
608
723
635
807
650
562
680
683
685
722
642
697
754
750
787
766
668
653
750
735
633
785
806
652
704
648
772
763
809
648
764
772
654
629
645
702
612
711
755
721
786
620
850
698
685
745
661
555
774
819
764
668
706
669
659
638
697
718
646
663
794
681
715
626
765
665
882
745
671
630
661
798
610
630
700
673
774
798
757
707
676
718
672
705
763
